; benchmark generated from python API
(set-info :status unknown)
(declare-fun cell_1_6 () Int)
(declare-fun cell_2_7 () Int)
(declare-fun cell_3_3 () Int)
(declare-fun cell_4_4 () Int)
(declare-fun cell_5_8 () Int)
(declare-fun cell_6_1 () Int)
(declare-fun cell_7_9 () Int)
(declare-fun cell_8_2 () Int)
(declare-fun cell_9_5 () Int)
(declare-fun cell_1_1 () Int)
(declare-fun cell_2_1 () Int)
(declare-fun cell_3_1 () Int)
(declare-fun cell_4_1 () Int)
(declare-fun cell_5_1 () Int)
(declare-fun cell_7_1 () Int)
(declare-fun cell_8_1 () Int)
(declare-fun cell_9_1 () Int)
(declare-fun cell_1_2 () Int)
(declare-fun cell_2_2 () Int)
(declare-fun cell_3_2 () Int)
(declare-fun cell_4_2 () Int)
(declare-fun cell_5_2 () Int)
(declare-fun cell_6_2 () Int)
(declare-fun cell_7_2 () Int)
(declare-fun cell_9_2 () Int)
(declare-fun cell_1_3 () Int)
(declare-fun cell_2_3 () Int)
(declare-fun cell_4_3 () Int)
(declare-fun cell_5_3 () Int)
(declare-fun cell_6_3 () Int)
(declare-fun cell_7_3 () Int)
(declare-fun cell_8_3 () Int)
(declare-fun cell_9_3 () Int)
(declare-fun cell_1_4 () Int)
(declare-fun cell_2_4 () Int)
(declare-fun cell_3_4 () Int)
(declare-fun cell_5_4 () Int)
(declare-fun cell_6_4 () Int)
(declare-fun cell_7_4 () Int)
(declare-fun cell_8_4 () Int)
(declare-fun cell_9_4 () Int)
(declare-fun cell_1_5 () Int)
(declare-fun cell_2_5 () Int)
(declare-fun cell_3_5 () Int)
(declare-fun cell_4_5 () Int)
(declare-fun cell_5_5 () Int)
(declare-fun cell_6_5 () Int)
(declare-fun cell_7_5 () Int)
(declare-fun cell_8_5 () Int)
(declare-fun cell_2_6 () Int)
(declare-fun cell_3_6 () Int)
(declare-fun cell_4_6 () Int)
(declare-fun cell_5_6 () Int)
(declare-fun cell_6_6 () Int)
(declare-fun cell_7_6 () Int)
(declare-fun cell_8_6 () Int)
(declare-fun cell_9_6 () Int)
(declare-fun cell_1_7 () Int)
(declare-fun cell_3_7 () Int)
(declare-fun cell_4_7 () Int)
(declare-fun cell_5_7 () Int)
(declare-fun cell_6_7 () Int)
(declare-fun cell_7_7 () Int)
(declare-fun cell_8_7 () Int)
(declare-fun cell_9_7 () Int)
(declare-fun cell_1_8 () Int)
(declare-fun cell_2_8 () Int)
(declare-fun cell_3_8 () Int)
(declare-fun cell_4_8 () Int)
(declare-fun cell_6_8 () Int)
(declare-fun cell_7_8 () Int)
(declare-fun cell_8_8 () Int)
(declare-fun cell_9_8 () Int)
(declare-fun cell_1_9 () Int)
(declare-fun cell_2_9 () Int)
(declare-fun cell_3_9 () Int)
(declare-fun cell_4_9 () Int)
(declare-fun cell_5_9 () Int)
(declare-fun cell_6_9 () Int)
(declare-fun cell_8_9 () Int)
(declare-fun cell_9_9 () Int)
(assert
 (= cell_1_6 1))
(assert
 (= cell_2_7 1))
(assert
 (= cell_3_3 1))
(assert
 (= cell_4_4 1))
(assert
 (= cell_5_8 1))
(assert
 (= cell_6_1 1))
(assert
 (= cell_7_9 1))
(assert
 (= cell_8_2 1))
(assert
 (= cell_9_5 1))
(assert
 (let (($x2380 (= cell_1_1 9)))
 (let (($x3362 (= cell_1_1 8)))
 (let (($x8389 (= cell_1_1 7)))
 (let (($x2157 (= cell_1_1 6)))
 (let (($x675 (= cell_1_1 5)))
 (let (($x3241 (= cell_1_1 4)))
 (let (($x3925 (= cell_1_1 3)))
 (let (($x5897 (= cell_1_1 2)))
 (let (($x6162 (= cell_1_1 1)))
 (or $x6162 $x5897 $x3925 $x3241 $x675 $x2157 $x8389 $x3362 $x2380)))))))))))
(assert
 (let (($x3540 (= cell_2_1 9)))
 (let (($x143 (= cell_2_1 8)))
 (let (($x2074 (= cell_2_1 7)))
 (let (($x4056 (= cell_2_1 6)))
 (let (($x2539 (= cell_2_1 5)))
 (let (($x3791 (= cell_2_1 4)))
 (let (($x2773 (= cell_2_1 3)))
 (let (($x1146 (= cell_2_1 2)))
 (let (($x516 (= cell_2_1 1)))
 (or $x516 $x1146 $x2773 $x3791 $x2539 $x4056 $x2074 $x143 $x3540)))))))))))
(assert
 (let (($x150 (= cell_3_1 9)))
 (let (($x2535 (= cell_3_1 8)))
 (let (($x268 (= cell_3_1 7)))
 (let (($x2088 (= cell_3_1 6)))
 (let (($x4838 (= cell_3_1 5)))
 (let (($x1265 (= cell_3_1 4)))
 (let (($x4548 (= cell_3_1 3)))
 (let (($x186 (= cell_3_1 2)))
 (let (($x2480 (= cell_3_1 1)))
 (or $x2480 $x186 $x4548 $x1265 $x4838 $x2088 $x268 $x2535 $x150)))))))))))
(assert
 (let (($x681 (= cell_4_1 9)))
 (let (($x5889 (= cell_4_1 8)))
 (let (($x3747 (= cell_4_1 7)))
 (let (($x4453 (= cell_4_1 6)))
 (let (($x4421 (= cell_4_1 5)))
 (let (($x3670 (= cell_4_1 4)))
 (let (($x6396 (= cell_4_1 3)))
 (let (($x3557 (= cell_4_1 2)))
 (let (($x285 (= cell_4_1 1)))
 (or $x285 $x3557 $x6396 $x3670 $x4421 $x4453 $x3747 $x5889 $x681)))))))))))
(assert
 (let (($x2251 (= cell_5_1 9)))
 (let (($x2514 (= cell_5_1 8)))
 (let (($x3087 (= cell_5_1 7)))
 (let (($x3891 (= cell_5_1 6)))
 (let (($x4141 (= cell_5_1 5)))
 (let (($x430 (= cell_5_1 4)))
 (let (($x5174 (= cell_5_1 3)))
 (let (($x2352 (= cell_5_1 2)))
 (let (($x3963 (= cell_5_1 1)))
 (or $x3963 $x2352 $x5174 $x430 $x4141 $x3891 $x3087 $x2514 $x2251)))))))))))
(assert
 (let (($x510 (= cell_6_1 1)))
 (or $x510 (= cell_6_1 2) (= cell_6_1 3) (= cell_6_1 4) (= cell_6_1 5) (= cell_6_1 6) (= cell_6_1 7) (= cell_6_1 8) (= cell_6_1 9))))
(assert
 (let (($x457 (= cell_7_1 9)))
 (let (($x4491 (= cell_7_1 8)))
 (let (($x2806 (= cell_7_1 7)))
 (let (($x5714 (= cell_7_1 6)))
 (let (($x3954 (= cell_7_1 5)))
 (let (($x4580 (= cell_7_1 4)))
 (let (($x2239 (= cell_7_1 3)))
 (let (($x2557 (= cell_7_1 2)))
 (let (($x2453 (= cell_7_1 1)))
 (or $x2453 $x2557 $x2239 $x4580 $x3954 $x5714 $x2806 $x4491 $x457)))))))))))
(assert
 (let (($x5543 (= cell_8_1 9)))
 (let (($x4577 (= cell_8_1 8)))
 (let (($x2975 (= cell_8_1 7)))
 (let (($x1905 (= cell_8_1 6)))
 (let (($x4672 (= cell_8_1 5)))
 (let (($x5948 (= cell_8_1 4)))
 (let (($x2882 (= cell_8_1 3)))
 (let (($x4383 (= cell_8_1 2)))
 (let (($x6291 (= cell_8_1 1)))
 (or $x6291 $x4383 $x2882 $x5948 $x4672 $x1905 $x2975 $x4577 $x5543)))))))))))
(assert
 (let (($x1128 (= cell_9_1 9)))
 (let (($x5025 (= cell_9_1 8)))
 (let (($x237 (= cell_9_1 7)))
 (let (($x1740 (= cell_9_1 6)))
 (let (($x4112 (= cell_9_1 5)))
 (let (($x1411 (= cell_9_1 4)))
 (let (($x4646 (= cell_9_1 3)))
 (let (($x3882 (= cell_9_1 2)))
 (let (($x1088 (= cell_9_1 1)))
 (or $x1088 $x3882 $x4646 $x1411 $x4112 $x1740 $x237 $x5025 $x1128)))))))))))
(assert
 (let (($x3681 (= cell_1_2 9)))
 (let (($x4113 (= cell_1_2 8)))
 (let (($x3698 (= cell_1_2 7)))
 (let (($x555 (= cell_1_2 6)))
 (let (($x3036 (= cell_1_2 5)))
 (let (($x1718 (= cell_1_2 4)))
 (let (($x5824 (= cell_1_2 3)))
 (let (($x894 (= cell_1_2 2)))
 (let (($x4395 (= cell_1_2 1)))
 (or $x4395 $x894 $x5824 $x1718 $x3036 $x555 $x3698 $x4113 $x3681)))))))))))
(assert
 (let (($x3578 (= cell_2_2 9)))
 (let (($x4005 (= cell_2_2 8)))
 (let (($x5884 (= cell_2_2 7)))
 (let (($x4663 (= cell_2_2 6)))
 (let (($x2661 (= cell_2_2 5)))
 (let (($x5813 (= cell_2_2 4)))
 (let (($x6090 (= cell_2_2 3)))
 (let (($x6156 (= cell_2_2 2)))
 (let (($x1428 (= cell_2_2 1)))
 (or $x1428 $x6156 $x6090 $x5813 $x2661 $x4663 $x5884 $x4005 $x3578)))))))))))
(assert
 (let (($x972 (= cell_3_2 9)))
 (let (($x3674 (= cell_3_2 8)))
 (let (($x663 (= cell_3_2 7)))
 (let (($x1826 (= cell_3_2 6)))
 (let (($x844 (= cell_3_2 5)))
 (let (($x4590 (= cell_3_2 4)))
 (let (($x690 (= cell_3_2 3)))
 (let (($x1424 (= cell_3_2 2)))
 (let (($x1655 (= cell_3_2 1)))
 (or $x1655 $x1424 $x690 $x4590 $x844 $x1826 $x663 $x3674 $x972)))))))))))
(assert
 (let (($x3164 (= cell_4_2 9)))
 (let (($x3889 (= cell_4_2 8)))
 (let (($x2195 (= cell_4_2 7)))
 (let (($x4540 (= cell_4_2 6)))
 (let (($x2887 (= cell_4_2 5)))
 (let (($x812 (= cell_4_2 4)))
 (let (($x3923 (= cell_4_2 3)))
 (let (($x359 (= cell_4_2 2)))
 (let (($x4888 (= cell_4_2 1)))
 (or $x4888 $x359 $x3923 $x812 $x2887 $x4540 $x2195 $x3889 $x3164)))))))))))
(assert
 (let (($x3268 (= cell_5_2 9)))
 (let (($x4009 (= cell_5_2 8)))
 (let (($x5040 (= cell_5_2 7)))
 (let (($x104 (= cell_5_2 6)))
 (let (($x2450 (= cell_5_2 5)))
 (let (($x4936 (= cell_5_2 4)))
 (let (($x3695 (= cell_5_2 3)))
 (let (($x4967 (= cell_5_2 2)))
 (let (($x1660 (= cell_5_2 1)))
 (or $x1660 $x4967 $x3695 $x4936 $x2450 $x104 $x5040 $x4009 $x3268)))))))))))
(assert
 (let (($x4000 (= cell_6_2 9)))
 (let (($x2523 (= cell_6_2 8)))
 (let (($x5698 (= cell_6_2 7)))
 (let (($x5188 (= cell_6_2 6)))
 (let (($x4278 (= cell_6_2 5)))
 (let (($x5344 (= cell_6_2 4)))
 (let (($x3907 (= cell_6_2 3)))
 (let (($x6568 (= cell_6_2 2)))
 (let (($x2479 (= cell_6_2 1)))
 (or $x2479 $x6568 $x3907 $x5344 $x4278 $x5188 $x5698 $x2523 $x4000)))))))))))
(assert
 (let (($x1479 (= cell_7_2 9)))
 (let (($x2638 (= cell_7_2 8)))
 (let (($x2525 (= cell_7_2 7)))
 (let (($x277 (= cell_7_2 6)))
 (let (($x5823 (= cell_7_2 5)))
 (let (($x2082 (= cell_7_2 4)))
 (let (($x5206 (= cell_7_2 3)))
 (let (($x655 (= cell_7_2 2)))
 (let (($x6577 (= cell_7_2 1)))
 (or $x6577 $x655 $x5206 $x2082 $x5823 $x277 $x2525 $x2638 $x1479)))))))))))
(assert
 (let (($x4356 (= cell_8_2 1)))
 (or $x4356 (= cell_8_2 2) (= cell_8_2 3) (= cell_8_2 4) (= cell_8_2 5) (= cell_8_2 6) (= cell_8_2 7) (= cell_8_2 8) (= cell_8_2 9))))
(assert
 (let (($x72 (= cell_9_2 9)))
 (let (($x1634 (= cell_9_2 8)))
 (let (($x1774 (= cell_9_2 7)))
 (let (($x6448 (= cell_9_2 6)))
 (let (($x1387 (= cell_9_2 5)))
 (let (($x6118 (= cell_9_2 4)))
 (let (($x5066 (= cell_9_2 3)))
 (let (($x3852 (= cell_9_2 2)))
 (let (($x4426 (= cell_9_2 1)))
 (or $x4426 $x3852 $x5066 $x6118 $x1387 $x6448 $x1774 $x1634 $x72)))))))))))
(assert
 (let (($x217 (= cell_1_3 9)))
 (let (($x117 (= cell_1_3 8)))
 (let (($x2153 (= cell_1_3 7)))
 (let (($x5071 (= cell_1_3 6)))
 (let (($x5845 (= cell_1_3 5)))
 (let (($x2490 (= cell_1_3 4)))
 (let (($x558 (= cell_1_3 3)))
 (let (($x1538 (= cell_1_3 2)))
 (let (($x6346 (= cell_1_3 1)))
 (or $x6346 $x1538 $x558 $x2490 $x5845 $x5071 $x2153 $x117 $x217)))))))))))
(assert
 (let (($x4675 (= cell_2_3 9)))
 (let (($x1496 (= cell_2_3 8)))
 (let (($x2373 (= cell_2_3 7)))
 (let (($x5851 (= cell_2_3 6)))
 (let (($x378 (= cell_2_3 5)))
 (let (($x1273 (= cell_2_3 4)))
 (let (($x2593 (= cell_2_3 3)))
 (let (($x6357 (= cell_2_3 2)))
 (let (($x3773 (= cell_2_3 1)))
 (or $x3773 $x6357 $x2593 $x1273 $x378 $x5851 $x2373 $x1496 $x4675)))))))))))
(assert
 (let (($x5496 (= cell_3_3 1)))
 (or $x5496 (= cell_3_3 2) (= cell_3_3 3) (= cell_3_3 4) (= cell_3_3 5) (= cell_3_3 6) (= cell_3_3 7) (= cell_3_3 8) (= cell_3_3 9))))
(assert
 (let (($x3789 (= cell_4_3 9)))
 (let (($x6193 (= cell_4_3 8)))
 (let (($x4213 (= cell_4_3 7)))
 (let (($x2367 (= cell_4_3 6)))
 (let (($x3966 (= cell_4_3 5)))
 (let (($x3999 (= cell_4_3 4)))
 (let (($x3614 (= cell_4_3 3)))
 (let (($x6352 (= cell_4_3 2)))
 (let (($x2843 (= cell_4_3 1)))
 (or $x2843 $x6352 $x3614 $x3999 $x3966 $x2367 $x4213 $x6193 $x3789)))))))))))
(assert
 (let (($x638 (= cell_5_3 9)))
 (let (($x2029 (= cell_5_3 8)))
 (let (($x1184 (= cell_5_3 7)))
 (let (($x466 (= cell_5_3 6)))
 (let (($x5406 (= cell_5_3 5)))
 (let (($x574 (= cell_5_3 4)))
 (let (($x2908 (= cell_5_3 3)))
 (let (($x1703 (= cell_5_3 2)))
 (let (($x1321 (= cell_5_3 1)))
 (or $x1321 $x1703 $x2908 $x574 $x5406 $x466 $x1184 $x2029 $x638)))))))))))
(assert
 (let (($x2366 (= cell_6_3 1)))
 (or $x2366 (= cell_6_3 2) (= cell_6_3 3) (= cell_6_3 4) (= cell_6_3 5) (= cell_6_3 6) (= cell_6_3 7) (= cell_6_3 8) (= cell_6_3 9))))
(assert
 (let (($x5361 (= cell_7_3 9)))
 (let (($x2493 (= cell_7_3 8)))
 (let (($x4831 (= cell_7_3 7)))
 (let (($x5987 (= cell_7_3 6)))
 (let (($x5382 (= cell_7_3 5)))
 (let (($x4786 (= cell_7_3 4)))
 (let (($x3855 (= cell_7_3 3)))
 (let (($x4338 (= cell_7_3 2)))
 (let (($x2446 (= cell_7_3 1)))
 (or $x2446 $x4338 $x3855 $x4786 $x5382 $x5987 $x4831 $x2493 $x5361)))))))))))
(assert
 (let (($x5770 (= cell_8_3 1)))
 (or $x5770 (= cell_8_3 2) (= cell_8_3 3) (= cell_8_3 4) (= cell_8_3 5) (= cell_8_3 6) (= cell_8_3 7) (= cell_8_3 8) (= cell_8_3 9))))
(assert
 (let (($x158 (= cell_9_3 9)))
 (let (($x3568 (= cell_9_3 8)))
 (let (($x3968 (= cell_9_3 7)))
 (let (($x989 (= cell_9_3 6)))
 (let (($x3975 (= cell_9_3 5)))
 (let (($x5577 (= cell_9_3 4)))
 (let (($x4430 (= cell_9_3 3)))
 (let (($x3454 (= cell_9_3 2)))
 (let (($x1062 (= cell_9_3 1)))
 (or $x1062 $x3454 $x4430 $x5577 $x3975 $x989 $x3968 $x3568 $x158)))))))))))
(assert
 (let (($x4254 (= cell_1_4 9)))
 (let (($x2506 (= cell_1_4 8)))
 (let (($x2306 (= cell_1_4 7)))
 (let (($x6176 (= cell_1_4 6)))
 (let (($x1363 (= cell_1_4 5)))
 (let (($x4569 (= cell_1_4 4)))
 (let (($x6072 (= cell_1_4 3)))
 (let (($x1451 (= cell_1_4 2)))
 (let (($x5550 (= cell_1_4 1)))
 (or $x5550 $x1451 $x6072 $x4569 $x1363 $x6176 $x2306 $x2506 $x4254)))))))))))
(assert
 (let (($x6131 (= cell_2_4 9)))
 (let (($x3775 (= cell_2_4 8)))
 (let (($x5545 (= cell_2_4 7)))
 (let (($x994 (= cell_2_4 6)))
 (let (($x3977 (= cell_2_4 5)))
 (let (($x3252 (= cell_2_4 4)))
 (let (($x3940 (= cell_2_4 3)))
 (let (($x1761 (= cell_2_4 2)))
 (let (($x1544 (= cell_2_4 1)))
 (or $x1544 $x1761 $x3940 $x3252 $x3977 $x994 $x5545 $x3775 $x6131)))))))))))
(assert
 (let (($x3564 (= cell_3_4 9)))
 (let (($x3696 (= cell_3_4 8)))
 (let (($x1083 (= cell_3_4 7)))
 (let (($x3863 (= cell_3_4 6)))
 (let (($x2644 (= cell_3_4 5)))
 (let (($x4304 (= cell_3_4 4)))
 (let (($x4099 (= cell_3_4 3)))
 (let (($x4034 (= cell_3_4 2)))
 (let (($x5121 (= cell_3_4 1)))
 (or $x5121 $x4034 $x4099 $x4304 $x2644 $x3863 $x1083 $x3696 $x3564)))))))))))
(assert
 (let (($x5447 (= cell_4_4 1)))
 (or $x5447 (= cell_4_4 2) (= cell_4_4 3) (= cell_4_4 4) (= cell_4_4 5) (= cell_4_4 6) (= cell_4_4 7) (= cell_4_4 8) (= cell_4_4 9))))
(assert
 (let (($x5828 (= cell_5_4 9)))
 (let (($x5834 (= cell_5_4 8)))
 (let (($x5308 (= cell_5_4 7)))
 (let (($x1254 (= cell_5_4 6)))
 (let (($x4125 (= cell_5_4 5)))
 (let (($x70 (= cell_5_4 4)))
 (let (($x3367 (= cell_5_4 3)))
 (let (($x6354 (= cell_5_4 2)))
 (let (($x1803 (= cell_5_4 1)))
 (or $x1803 $x6354 $x3367 $x70 $x4125 $x1254 $x5308 $x5834 $x5828)))))))))))
(assert
 (let (($x3898 (= cell_6_4 1)))
 (or $x3898 (= cell_6_4 2) (= cell_6_4 3) (= cell_6_4 4) (= cell_6_4 5) (= cell_6_4 6) (= cell_6_4 7) (= cell_6_4 8) (= cell_6_4 9))))
(assert
 (let (($x4458 (= cell_7_4 9)))
 (let (($x2966 (= cell_7_4 8)))
 (let (($x4258 (= cell_7_4 7)))
 (let (($x4364 (= cell_7_4 6)))
 (let (($x660 (= cell_7_4 5)))
 (let (($x1032 (= cell_7_4 4)))
 (let (($x4396 (= cell_7_4 3)))
 (let (($x1910 (= cell_7_4 2)))
 (let (($x1600 (= cell_7_4 1)))
 (or $x1600 $x1910 $x4396 $x1032 $x660 $x4364 $x4258 $x2966 $x4458)))))))))))
(assert
 (let (($x1783 (= cell_8_4 9)))
 (let (($x5502 (= cell_8_4 8)))
 (let (($x948 (= cell_8_4 7)))
 (let (($x1144 (= cell_8_4 6)))
 (let (($x3813 (= cell_8_4 5)))
 (let (($x3987 (= cell_8_4 4)))
 (let (($x3509 (= cell_8_4 3)))
 (let (($x4519 (= cell_8_4 2)))
 (let (($x3475 (= cell_8_4 1)))
 (or $x3475 $x4519 $x3509 $x3987 $x3813 $x1144 $x948 $x5502 $x1783)))))))))))
(assert
 (let (($x4336 (= cell_9_4 9)))
 (let (($x1782 (= cell_9_4 8)))
 (let (($x4564 (= cell_9_4 7)))
 (let (($x1372 (= cell_9_4 6)))
 (let (($x3896 (= cell_9_4 5)))
 (let (($x2272 (= cell_9_4 4)))
 (let (($x5937 (= cell_9_4 3)))
 (let (($x572 (= cell_9_4 2)))
 (let (($x5077 (= cell_9_4 1)))
 (or $x5077 $x572 $x5937 $x2272 $x3896 $x1372 $x4564 $x1782 $x4336)))))))))))
(assert
 (let (($x799 (= cell_1_5 9)))
 (let (($x1534 (= cell_1_5 8)))
 (let (($x6329 (= cell_1_5 7)))
 (let (($x6048 (= cell_1_5 6)))
 (let (($x5600 (= cell_1_5 5)))
 (let (($x6168 (= cell_1_5 4)))
 (let (($x6161 (= cell_1_5 3)))
 (let (($x1204 (= cell_1_5 2)))
 (let (($x5149 (= cell_1_5 1)))
 (or $x5149 $x1204 $x6161 $x6168 $x5600 $x6048 $x6329 $x1534 $x799)))))))))))
(assert
 (let (($x187 (= cell_2_5 9)))
 (let (($x6384 (= cell_2_5 8)))
 (let (($x3101 (= cell_2_5 7)))
 (let (($x4150 (= cell_2_5 6)))
 (let (($x3287 (= cell_2_5 5)))
 (let (($x1796 (= cell_2_5 4)))
 (let (($x4785 (= cell_2_5 3)))
 (let (($x3795 (= cell_2_5 2)))
 (let (($x4737 (= cell_2_5 1)))
 (or $x4737 $x3795 $x4785 $x1796 $x3287 $x4150 $x3101 $x6384 $x187)))))))))))
(assert
 (let (($x347 (= cell_3_5 9)))
 (let (($x1047 (= cell_3_5 8)))
 (let (($x68 (= cell_3_5 7)))
 (let (($x2194 (= cell_3_5 6)))
 (let (($x5362 (= cell_3_5 5)))
 (let (($x2723 (= cell_3_5 4)))
 (let (($x105 (= cell_3_5 3)))
 (let (($x794 (= cell_3_5 2)))
 (let (($x5872 (= cell_3_5 1)))
 (or $x5872 $x794 $x105 $x2723 $x5362 $x2194 $x68 $x1047 $x347)))))))))))
(assert
 (let (($x5562 (= cell_4_5 9)))
 (let (($x1026 (= cell_4_5 8)))
 (let (($x4215 (= cell_4_5 7)))
 (let (($x3598 (= cell_4_5 6)))
 (let (($x4183 (= cell_4_5 5)))
 (let (($x5916 (= cell_4_5 4)))
 (let (($x6067 (= cell_4_5 3)))
 (let (($x901 (= cell_4_5 2)))
 (let (($x4376 (= cell_4_5 1)))
 (or $x4376 $x901 $x6067 $x5916 $x4183 $x3598 $x4215 $x1026 $x5562)))))))))))
(assert
 (let (($x3728 (= cell_5_5 9)))
 (let (($x1319 (= cell_5_5 8)))
 (let (($x4906 (= cell_5_5 7)))
 (let (($x4385 (= cell_5_5 6)))
 (let (($x796 (= cell_5_5 5)))
 (let (($x4651 (= cell_5_5 4)))
 (let (($x1652 (= cell_5_5 3)))
 (let (($x211 (= cell_5_5 2)))
 (let (($x1834 (= cell_5_5 1)))
 (or $x1834 $x211 $x1652 $x4651 $x796 $x4385 $x4906 $x1319 $x3728)))))))))))
(assert
 (let (($x3355 (= cell_6_5 9)))
 (let (($x315 (= cell_6_5 8)))
 (let (($x2458 (= cell_6_5 7)))
 (let (($x3737 (= cell_6_5 6)))
 (let (($x810 (= cell_6_5 5)))
 (let (($x827 (= cell_6_5 4)))
 (let (($x541 (= cell_6_5 3)))
 (let (($x2657 (= cell_6_5 2)))
 (let (($x3847 (= cell_6_5 1)))
 (or $x3847 $x2657 $x541 $x827 $x810 $x3737 $x2458 $x315 $x3355)))))))))))
(assert
 (let (($x39 (= cell_7_5 9)))
 (let (($x5430 (= cell_7_5 8)))
 (let (($x2139 (= cell_7_5 7)))
 (let (($x4319 (= cell_7_5 6)))
 (let (($x5532 (= cell_7_5 5)))
 (let (($x8365 (= cell_7_5 4)))
 (let (($x6128 (= cell_7_5 3)))
 (let (($x3496 (= cell_7_5 2)))
 (let (($x5932 (= cell_7_5 1)))
 (or $x5932 $x3496 $x6128 $x8365 $x5532 $x4319 $x2139 $x5430 $x39)))))))))))
(assert
 (let (($x3404 (= cell_8_5 9)))
 (let (($x4891 (= cell_8_5 8)))
 (let (($x6181 (= cell_8_5 7)))
 (let (($x3916 (= cell_8_5 6)))
 (let (($x9432 (= cell_8_5 5)))
 (let (($x1746 (= cell_8_5 4)))
 (let (($x2590 (= cell_8_5 3)))
 (let (($x5283 (= cell_8_5 2)))
 (let (($x6582 (= cell_8_5 1)))
 (or $x6582 $x5283 $x2590 $x1746 $x9432 $x3916 $x6181 $x4891 $x3404)))))))))))
(assert
 (let (($x3635 (= cell_9_5 1)))
 (or $x3635 (= cell_9_5 2) (= cell_9_5 3) (= cell_9_5 4) (= cell_9_5 5) (= cell_9_5 6) (= cell_9_5 7) (= cell_9_5 8) (= cell_9_5 9))))
(assert
 (let (($x987 (= cell_1_6 1)))
 (or $x987 (= cell_1_6 2) (= cell_1_6 3) (= cell_1_6 4) (= cell_1_6 5) (= cell_1_6 6) (= cell_1_6 7) (= cell_1_6 8) (= cell_1_6 9))))
(assert
 (let (($x405 (= cell_2_6 9)))
 (let (($x6558 (= cell_2_6 8)))
 (let (($x257 (= cell_2_6 7)))
 (let (($x5598 (= cell_2_6 6)))
 (let (($x1658 (= cell_2_6 5)))
 (let (($x4379 (= cell_2_6 4)))
 (let (($x931 (= cell_2_6 3)))
 (let (($x1924 (= cell_2_6 2)))
 (let (($x1248 (= cell_2_6 1)))
 (or $x1248 $x1924 $x931 $x4379 $x1658 $x5598 $x257 $x6558 $x405)))))))))))
(assert
 (let (($x2853 (= cell_3_6 1)))
 (or $x2853 (= cell_3_6 2) (= cell_3_6 3) (= cell_3_6 4) (= cell_3_6 5) (= cell_3_6 6) (= cell_3_6 7) (= cell_3_6 8) (= cell_3_6 9))))
(assert
 (let (($x3675 (= cell_4_6 1)))
 (or $x3675 (= cell_4_6 2) (= cell_4_6 3) (= cell_4_6 4) (= cell_4_6 5) (= cell_4_6 6) (= cell_4_6 7) (= cell_4_6 8) (= cell_4_6 9))))
(assert
 (let (($x1364 (= cell_5_6 9)))
 (let (($x2136 (= cell_5_6 8)))
 (let (($x1719 (= cell_5_6 7)))
 (let (($x1580 (= cell_5_6 6)))
 (let (($x2754 (= cell_5_6 5)))
 (let (($x5409 (= cell_5_6 4)))
 (let (($x2343 (= cell_5_6 3)))
 (let (($x3697 (= cell_5_6 2)))
 (let (($x2952 (= cell_5_6 1)))
 (or $x2952 $x3697 $x2343 $x5409 $x2754 $x1580 $x1719 $x2136 $x1364)))))))))))
(assert
 (let (($x1075 (= cell_6_6 1)))
 (or $x1075 (= cell_6_6 2) (= cell_6_6 3) (= cell_6_6 4) (= cell_6_6 5) (= cell_6_6 6) (= cell_6_6 7) (= cell_6_6 8) (= cell_6_6 9))))
(assert
 (let (($x3274 (= cell_7_6 9)))
 (let (($x5571 (= cell_7_6 8)))
 (let (($x6165 (= cell_7_6 7)))
 (let (($x6431 (= cell_7_6 6)))
 (let (($x4917 (= cell_7_6 5)))
 (let (($x5663 (= cell_7_6 4)))
 (let (($x2580 (= cell_7_6 3)))
 (let (($x6371 (= cell_7_6 2)))
 (let (($x2043 (= cell_7_6 1)))
 (or $x2043 $x6371 $x2580 $x5663 $x4917 $x6431 $x6165 $x5571 $x3274)))))))))))
(assert
 (let (($x1615 (= cell_8_6 9)))
 (let (($x4997 (= cell_8_6 8)))
 (let (($x580 (= cell_8_6 7)))
 (let (($x4903 (= cell_8_6 6)))
 (let (($x2274 (= cell_8_6 5)))
 (let (($x4898 (= cell_8_6 4)))
 (let (($x3798 (= cell_8_6 3)))
 (let (($x5306 (= cell_8_6 2)))
 (let (($x2058 (= cell_8_6 1)))
 (or $x2058 $x5306 $x3798 $x4898 $x2274 $x4903 $x580 $x4997 $x1615)))))))))))
(assert
 (let (($x2037 (= cell_9_6 1)))
 (or $x2037 (= cell_9_6 2) (= cell_9_6 3) (= cell_9_6 4) (= cell_9_6 5) (= cell_9_6 6) (= cell_9_6 7) (= cell_9_6 8) (= cell_9_6 9))))
(assert
 (let (($x609 (= cell_1_7 9)))
 (let (($x4147 (= cell_1_7 8)))
 (let (($x9 (= cell_1_7 7)))
 (let (($x6076 (= cell_1_7 6)))
 (let (($x4625 (= cell_1_7 5)))
 (let (($x1180 (= cell_1_7 4)))
 (let (($x3835 (= cell_1_7 3)))
 (let (($x3792 (= cell_1_7 2)))
 (let (($x2331 (= cell_1_7 1)))
 (or $x2331 $x3792 $x3835 $x1180 $x4625 $x6076 $x9 $x4147 $x609)))))))))))
(assert
 (let (($x4302 (= cell_2_7 1)))
 (or $x4302 (= cell_2_7 2) (= cell_2_7 3) (= cell_2_7 4) (= cell_2_7 5) (= cell_2_7 6) (= cell_2_7 7) (= cell_2_7 8) (= cell_2_7 9))))
(assert
 (let (($x4151 (= cell_3_7 1)))
 (or $x4151 (= cell_3_7 2) (= cell_3_7 3) (= cell_3_7 4) (= cell_3_7 5) (= cell_3_7 6) (= cell_3_7 7) (= cell_3_7 8) (= cell_3_7 9))))
(assert
 (let (($x2725 (= cell_4_7 9)))
 (let (($x4534 (= cell_4_7 8)))
 (let (($x1279 (= cell_4_7 7)))
 (let (($x5462 (= cell_4_7 6)))
 (let (($x4260 (= cell_4_7 5)))
 (let (($x833 (= cell_4_7 4)))
 (let (($x5751 (= cell_4_7 3)))
 (let (($x3693 (= cell_4_7 2)))
 (let (($x672 (= cell_4_7 1)))
 (or $x672 $x3693 $x5751 $x833 $x4260 $x5462 $x1279 $x4534 $x2725)))))))))))
(assert
 (let (($x6098 (= cell_5_7 9)))
 (let (($x5976 (= cell_5_7 8)))
 (let (($x3832 (= cell_5_7 7)))
 (let (($x2286 (= cell_5_7 6)))
 (let (($x1727 (= cell_5_7 5)))
 (let (($x1494 (= cell_5_7 4)))
 (let (($x3261 (= cell_5_7 3)))
 (let (($x48 (= cell_5_7 2)))
 (let (($x4229 (= cell_5_7 1)))
 (or $x4229 $x48 $x3261 $x1494 $x1727 $x2286 $x3832 $x5976 $x6098)))))))))))
(assert
 (let (($x1122 (= cell_6_7 1)))
 (or $x1122 (= cell_6_7 2) (= cell_6_7 3) (= cell_6_7 4) (= cell_6_7 5) (= cell_6_7 6) (= cell_6_7 7) (= cell_6_7 8) (= cell_6_7 9))))
(assert
 (let (($x4276 (= cell_7_7 9)))
 (let (($x3808 (= cell_7_7 8)))
 (let (($x5619 (= cell_7_7 7)))
 (let (($x4153 (= cell_7_7 6)))
 (let (($x3982 (= cell_7_7 5)))
 (let (($x1961 (= cell_7_7 4)))
 (let (($x1293 (= cell_7_7 3)))
 (let (($x5010 (= cell_7_7 2)))
 (let (($x2984 (= cell_7_7 1)))
 (or $x2984 $x5010 $x1293 $x1961 $x3982 $x4153 $x5619 $x3808 $x4276)))))))))))
(assert
 (let (($x4632 (= cell_8_7 1)))
 (or $x4632 (= cell_8_7 2) (= cell_8_7 3) (= cell_8_7 4) (= cell_8_7 5) (= cell_8_7 6) (= cell_8_7 7) (= cell_8_7 8) (= cell_8_7 9))))
(assert
 (let (($x4710 (= cell_9_7 1)))
 (or $x4710 (= cell_9_7 2) (= cell_9_7 3) (= cell_9_7 4) (= cell_9_7 5) (= cell_9_7 6) (= cell_9_7 7) (= cell_9_7 8) (= cell_9_7 9))))
(assert
 (let (($x2787 (= cell_1_8 9)))
 (let (($x4767 (= cell_1_8 8)))
 (let (($x5736 (= cell_1_8 7)))
 (let (($x1621 (= cell_1_8 6)))
 (let (($x5975 (= cell_1_8 5)))
 (let (($x4086 (= cell_1_8 4)))
 (let (($x3973 (= cell_1_8 3)))
 (let (($x1974 (= cell_1_8 2)))
 (let (($x4405 (= cell_1_8 1)))
 (or $x4405 $x1974 $x3973 $x4086 $x5975 $x1621 $x5736 $x4767 $x2787)))))))))))
(assert
 (let (($x1742 (= cell_2_8 9)))
 (let (($x1378 (= cell_2_8 8)))
 (let (($x3284 (= cell_2_8 7)))
 (let (($x1148 (= cell_2_8 6)))
 (let (($x1509 (= cell_2_8 5)))
 (let (($x1979 (= cell_2_8 4)))
 (let (($x5351 (= cell_2_8 3)))
 (let (($x3596 (= cell_2_8 2)))
 (let (($x3994 (= cell_2_8 1)))
 (or $x3994 $x3596 $x5351 $x1979 $x1509 $x1148 $x3284 $x1378 $x1742)))))))))))
(assert
 (let (($x4738 (= cell_3_8 9)))
 (let (($x5538 (= cell_3_8 8)))
 (let (($x1131 (= cell_3_8 7)))
 (let (($x2612 (= cell_3_8 6)))
 (let (($x5190 (= cell_3_8 5)))
 (let (($x2745 (= cell_3_8 4)))
 (let (($x4824 (= cell_3_8 3)))
 (let (($x50 (= cell_3_8 2)))
 (let (($x4999 (= cell_3_8 1)))
 (or $x4999 $x50 $x4824 $x2745 $x5190 $x2612 $x1131 $x5538 $x4738)))))))))))
(assert
 (let (($x2290 (= cell_4_8 9)))
 (let (($x5503 (= cell_4_8 8)))
 (let (($x6565 (= cell_4_8 7)))
 (let (($x2034 (= cell_4_8 6)))
 (let (($x499 (= cell_4_8 5)))
 (let (($x3336 (= cell_4_8 4)))
 (let (($x4969 (= cell_4_8 3)))
 (let (($x5782 (= cell_4_8 2)))
 (let (($x3691 (= cell_4_8 1)))
 (or $x3691 $x5782 $x4969 $x3336 $x499 $x2034 $x6565 $x5503 $x2290)))))))))))
(assert
 (let (($x2308 (= cell_5_8 1)))
 (or $x2308 (= cell_5_8 2) (= cell_5_8 3) (= cell_5_8 4) (= cell_5_8 5) (= cell_5_8 6) (= cell_5_8 7) (= cell_5_8 8) (= cell_5_8 9))))
(assert
 (let (($x2210 (= cell_6_8 1)))
 (or $x2210 (= cell_6_8 2) (= cell_6_8 3) (= cell_6_8 4) (= cell_6_8 5) (= cell_6_8 6) (= cell_6_8 7) (= cell_6_8 8) (= cell_6_8 9))))
(assert
 (let (($x963 (= cell_7_8 9)))
 (let (($x2730 (= cell_7_8 8)))
 (let (($x3983 (= cell_7_8 7)))
 (let (($x1058 (= cell_7_8 6)))
 (let (($x5711 (= cell_7_8 5)))
 (let (($x4775 (= cell_7_8 4)))
 (let (($x4023 (= cell_7_8 3)))
 (let (($x4885 (= cell_7_8 2)))
 (let (($x3531 (= cell_7_8 1)))
 (or $x3531 $x4885 $x4023 $x4775 $x5711 $x1058 $x3983 $x2730 $x963)))))))))))
(assert
 (let (($x1605 (= cell_8_8 1)))
 (or $x1605 (= cell_8_8 2) (= cell_8_8 3) (= cell_8_8 4) (= cell_8_8 5) (= cell_8_8 6) (= cell_8_8 7) (= cell_8_8 8) (= cell_8_8 9))))
(assert
 (let (($x4166 (= cell_9_8 1)))
 (or $x4166 (= cell_9_8 2) (= cell_9_8 3) (= cell_9_8 4) (= cell_9_8 5) (= cell_9_8 6) (= cell_9_8 7) (= cell_9_8 8) (= cell_9_8 9))))
(assert
 (let (($x4893 (= cell_1_9 9)))
 (let (($x730 (= cell_1_9 8)))
 (let (($x4720 (= cell_1_9 7)))
 (let (($x204 (= cell_1_9 6)))
 (let (($x3324 (= cell_1_9 5)))
 (let (($x228 (= cell_1_9 4)))
 (let (($x4004 (= cell_1_9 3)))
 (let (($x3688 (= cell_1_9 2)))
 (let (($x1690 (= cell_1_9 1)))
 (or $x1690 $x3688 $x4004 $x228 $x3324 $x204 $x4720 $x730 $x4893)))))))))))
(assert
 (let (($x2768 (= cell_2_9 9)))
 (let (($x4232 (= cell_2_9 8)))
 (let (($x3906 (= cell_2_9 7)))
 (let (($x5413 (= cell_2_9 6)))
 (let (($x736 (= cell_2_9 5)))
 (let (($x3053 (= cell_2_9 4)))
 (let (($x5441 (= cell_2_9 3)))
 (let (($x3120 (= cell_2_9 2)))
 (let (($x5569 (= cell_2_9 1)))
 (or $x5569 $x3120 $x5441 $x3053 $x736 $x5413 $x3906 $x4232 $x2768)))))))))))
(assert
 (let (($x1854 (= cell_3_9 9)))
 (let (($x4877 (= cell_3_9 8)))
 (let (($x3541 (= cell_3_9 7)))
 (let (($x5261 (= cell_3_9 6)))
 (let (($x2474 (= cell_3_9 5)))
 (let (($x806 (= cell_3_9 4)))
 (let (($x3070 (= cell_3_9 3)))
 (let (($x4542 (= cell_3_9 2)))
 (let (($x2126 (= cell_3_9 1)))
 (or $x2126 $x4542 $x3070 $x806 $x2474 $x5261 $x3541 $x4877 $x1854)))))))))))
(assert
 (let (($x440 (= cell_4_9 9)))
 (let (($x3699 (= cell_4_9 8)))
 (let (($x6078 (= cell_4_9 7)))
 (let (($x6445 (= cell_4_9 6)))
 (let (($x4582 (= cell_4_9 5)))
 (let (($x3786 (= cell_4_9 4)))
 (let (($x5703 (= cell_4_9 3)))
 (let (($x6338 (= cell_4_9 2)))
 (let (($x500 (= cell_4_9 1)))
 (or $x500 $x6338 $x5703 $x3786 $x4582 $x6445 $x6078 $x3699 $x440)))))))))))
(assert
 (let (($x54 (= cell_5_9 9)))
 (let (($x5648 (= cell_5_9 8)))
 (let (($x4555 (= cell_5_9 7)))
 (let (($x4565 (= cell_5_9 6)))
 (let (($x355 (= cell_5_9 5)))
 (let (($x4468 (= cell_5_9 4)))
 (let (($x4566 (= cell_5_9 3)))
 (let (($x5644 (= cell_5_9 2)))
 (let (($x1416 (= cell_5_9 1)))
 (or $x1416 $x5644 $x4566 $x4468 $x355 $x4565 $x4555 $x5648 $x54)))))))))))
(assert
 (let (($x5635 (= cell_6_9 9)))
 (let (($x861 (= cell_6_9 8)))
 (let (($x3431 (= cell_6_9 7)))
 (let (($x4508 (= cell_6_9 6)))
 (let (($x3473 (= cell_6_9 5)))
 (let (($x2047 (= cell_6_9 4)))
 (let (($x1536 (= cell_6_9 3)))
 (let (($x6085 (= cell_6_9 2)))
 (let (($x4103 (= cell_6_9 1)))
 (or $x4103 $x6085 $x1536 $x2047 $x3473 $x4508 $x3431 $x861 $x5635)))))))))))
(assert
 (let (($x4744 (= cell_7_9 1)))
 (or $x4744 (= cell_7_9 2) (= cell_7_9 3) (= cell_7_9 4) (= cell_7_9 5) (= cell_7_9 6) (= cell_7_9 7) (= cell_7_9 8) (= cell_7_9 9))))
(assert
 (let (($x1772 (= cell_8_9 1)))
 (or $x1772 (= cell_8_9 2) (= cell_8_9 3) (= cell_8_9 4) (= cell_8_9 5) (= cell_8_9 6) (= cell_8_9 7) (= cell_8_9 8) (= cell_8_9 9))))
(assert
 (let (($x939 (= cell_9_9 1)))
 (or $x939 (= cell_9_9 2) (= cell_9_9 3) (= cell_9_9 4) (= cell_9_9 5) (= cell_9_9 6) (= cell_9_9 7) (= cell_9_9 8) (= cell_9_9 9))))
(assert
 (and (distinct cell_1_1 cell_1_2 cell_1_3 cell_1_4 cell_1_5 cell_1_6 cell_1_7 cell_1_8 cell_1_9) true))
(assert
 (and (distinct cell_2_1 cell_2_2 cell_2_3 cell_2_4 cell_2_5 cell_2_6 cell_2_7 cell_2_8 cell_2_9) true))
(assert
 (and (distinct cell_3_1 cell_3_2 cell_3_3 cell_3_4 cell_3_5 cell_3_6 cell_3_7 cell_3_8 cell_3_9) true))
(assert
 (and (distinct cell_4_1 cell_4_2 cell_4_3 cell_4_4 cell_4_5 cell_4_6 cell_4_7 cell_4_8 cell_4_9) true))
(assert
 (and (distinct cell_5_1 cell_5_2 cell_5_3 cell_5_4 cell_5_5 cell_5_6 cell_5_7 cell_5_8 cell_5_9) true))
(assert
 (and (distinct cell_6_1 cell_6_2 cell_6_3 cell_6_4 cell_6_5 cell_6_6 cell_6_7 cell_6_8 cell_6_9) true))
(assert
 (and (distinct cell_7_1 cell_7_2 cell_7_3 cell_7_4 cell_7_5 cell_7_6 cell_7_7 cell_7_8 cell_7_9) true))
(assert
 (and (distinct cell_8_1 cell_8_2 cell_8_3 cell_8_4 cell_8_5 cell_8_6 cell_8_7 cell_8_8 cell_8_9) true))
(assert
 (and (distinct cell_9_1 cell_9_2 cell_9_3 cell_9_4 cell_9_5 cell_9_6 cell_9_7 cell_9_8 cell_9_9) true))
(assert
 (and (distinct cell_1_1 cell_2_1 cell_3_1 cell_4_1 cell_5_1 cell_6_1 cell_7_1 cell_8_1 cell_9_1) true))
(assert
 (and (distinct cell_1_2 cell_2_2 cell_3_2 cell_4_2 cell_5_2 cell_6_2 cell_7_2 cell_8_2 cell_9_2) true))
(assert
 (and (distinct cell_1_3 cell_2_3 cell_3_3 cell_4_3 cell_5_3 cell_6_3 cell_7_3 cell_8_3 cell_9_3) true))
(assert
 (and (distinct cell_1_4 cell_2_4 cell_3_4 cell_4_4 cell_5_4 cell_6_4 cell_7_4 cell_8_4 cell_9_4) true))
(assert
 (and (distinct cell_1_5 cell_2_5 cell_3_5 cell_4_5 cell_5_5 cell_6_5 cell_7_5 cell_8_5 cell_9_5) true))
(assert
 (and (distinct cell_1_6 cell_2_6 cell_3_6 cell_4_6 cell_5_6 cell_6_6 cell_7_6 cell_8_6 cell_9_6) true))
(assert
 (and (distinct cell_1_7 cell_2_7 cell_3_7 cell_4_7 cell_5_7 cell_6_7 cell_7_7 cell_8_7 cell_9_7) true))
(assert
 (and (distinct cell_1_8 cell_2_8 cell_3_8 cell_4_8 cell_5_8 cell_6_8 cell_7_8 cell_8_8 cell_9_8) true))
(assert
 (and (distinct cell_1_9 cell_2_9 cell_3_9 cell_4_9 cell_5_9 cell_6_9 cell_7_9 cell_8_9 cell_9_9) true))
(assert
 (and (distinct cell_1_1 cell_1_2 cell_1_3 cell_2_1 cell_2_2 cell_2_3 cell_3_1 cell_3_2 cell_3_3) true))
(assert
 (and (distinct cell_1_4 cell_1_5 cell_1_6 cell_2_4 cell_2_5 cell_2_6 cell_3_4 cell_3_5 cell_3_6) true))
(assert
 (and (distinct cell_1_7 cell_1_8 cell_1_9 cell_2_7 cell_2_8 cell_2_9 cell_3_7 cell_3_8 cell_3_9) true))
(assert
 (and (distinct cell_4_1 cell_4_2 cell_4_3 cell_5_1 cell_5_2 cell_5_3 cell_6_1 cell_6_2 cell_6_3) true))
(assert
 (and (distinct cell_4_4 cell_4_5 cell_4_6 cell_5_4 cell_5_5 cell_5_6 cell_6_4 cell_6_5 cell_6_6) true))
(assert
 (and (distinct cell_4_7 cell_4_8 cell_4_9 cell_5_7 cell_5_8 cell_5_9 cell_6_7 cell_6_8 cell_6_9) true))
(assert
 (and (distinct cell_7_1 cell_7_2 cell_7_3 cell_8_1 cell_8_2 cell_8_3 cell_9_1 cell_9_2 cell_9_3) true))
(assert
 (and (distinct cell_7_4 cell_7_5 cell_7_6 cell_8_4 cell_8_5 cell_8_6 cell_9_4 cell_9_5 cell_9_6) true))
(assert
 (and (distinct cell_7_7 cell_7_8 cell_7_9 cell_8_7 cell_8_8 cell_8_9 cell_9_7 cell_9_8 cell_9_9) true))
(assert
 (let (($x4943 (and (distinct cell_5_9 cell_6_8 cell_7_7 cell_8_6) true)))
 (let (($x3917 (and (distinct cell_2_9 cell_3_8 cell_4_7 cell_5_6 cell_6_5 cell_7_4 cell_8_3 cell_9_2) true)))
 (let (($x448 (and (distinct cell_1_8 cell_2_7 cell_3_6 cell_4_5 cell_5_4 cell_6_3 cell_7_2 cell_8_1) true)))
 (let (($x3704 (and (distinct cell_1_5 cell_2_4 cell_3_3 cell_4_2) true)))
 (let (($x4030 (and (distinct cell_5_1 cell_6_2 cell_7_3 cell_8_4) true)))
 (let (($x1610 (and (distinct cell_2_1 cell_3_2 cell_4_3 cell_5_4 cell_6_5 cell_7_6 cell_8_7 cell_9_8) true)))
 (let (($x2003 (and (distinct cell_1_2 cell_2_3 cell_3_4 cell_4_5 cell_5_6 cell_6_7 cell_7_8 cell_8_9) true)))
 (let (($x5061 (and (distinct cell_1_5 cell_2_6 cell_3_7 cell_4_8) true)))
 (and $x5061 $x2003 $x1610 $x4030 $x3704 $x448 $x3917 $x4943))))))))))
(assert
 (= cell_1_8 2))
(check-sat)
